cases/matpower/case6.m
ipopt
DCP
[info | PowerModels]: removing 3 cost terms from generator 6: Float64[]
[info | PowerModels]: removing 3 cost terms from generator 3: Float64[]
[warn | PowerModels]: multiple reference buses found, [4, 1], this can cause infeasibility if they are in the same connected component

******************************************************************************
This program contains Ipopt, a library for large-scale nonlinear optimization.
 Ipopt is released as open source code under the Eclipse Public License (EPL).
         For more information visit http://projects.coin-or.org/Ipopt
******************************************************************************

This is Ipopt version 3.13.2, running with linear solver mumps.
NOTE: Other linear solvers might be more efficient (see Ipopt documentation).

Number of nonzeros in equality constraint Jacobian...:       36
Number of nonzeros in inequality constraint Jacobian.:       24
Number of nonzeros in Lagrangian Hessian.............:        4

Total number of variables............................:       16
                     variables with only lower bounds:        0
                variables with lower and upper bounds:       10
                     variables with only upper bounds:        0
Total number of equality constraints.................:       14
Total number of inequality constraints...............:       12
        inequality constraints with only lower bounds:        6
   inequality constraints with lower and upper bounds:        0
        inequality constraints with only upper bounds:        6

iter    objective    inf_pr   inf_du lg(mu)  ||d||  lg(rg) alpha_du alpha_pr  ls
   0  1.2789987e+01 1.09e+00 1.96e+01  -1.0 0.00e+00    -  0.00e+00 0.00e+00   0
   1  9.5434862e+03 9.61e-02 1.56e+02  -1.0 1.80e+00    -  5.78e-03 9.12e-01h  1
   2  9.6684083e+03 8.88e-02 1.45e+02  -1.0 2.04e-01    -  9.91e-01 7.53e-02h  1
   3  1.1400580e+04 9.71e-17 1.00e-06  -1.0 2.26e-01    -  1.00e+00 1.00e+00h  1
   4  1.1392278e+04 2.22e-16 2.00e-07  -1.7 6.11e-03    -  1.00e+00 1.00e+00f  1
   5  1.1391821e+04 2.22e-16 2.83e-08  -2.5 3.43e-04    -  1.00e+00 1.00e+00f  1
   6  1.1391793e+04 6.94e-17 1.50e-09  -3.8 2.07e-05    -  1.00e+00 1.00e+00f  1
   7  1.1391792e+04 2.22e-16 1.84e-11  -5.7 1.12e-06    -  1.00e+00 1.00e+00f  1
   8  1.1391792e+04 1.11e-16 1.75e-13  -8.6 1.38e-08    -  1.00e+00 1.00e+00f  1

Number of Iterations....: 8

                                   (scaled)                 (unscaled)
Objective...............:   2.2783583537204563e+03    1.1391791768602281e+04
Dual infeasibility......:   1.7509401856556933e-13    8.7547009282784665e-13
Constraint violation....:   1.1102230246251565e-16    1.1102230246251565e-16
Complementarity.........:   2.5060437665202085e-09    1.2530218832601041e-08
Overall NLP error.......:   2.5060437665202085e-09    1.2530218832601041e-08


Number of objective function evaluations             = 9
Number of objective gradient evaluations             = 9
Number of equality constraint evaluations            = 9
Number of inequality constraint evaluations          = 9
Number of equality constraint Jacobian evaluations   = 1
Number of inequality constraint Jacobian evaluations = 1
Number of Lagrangian Hessian evaluations             = 1
Total CPU secs in IPOPT (w/o function evaluations)   =      0.227
Total CPU secs in NLP function evaluations           =      0.210

EXIT: Optimal Solution Found.
Time to Solution........:1.1146790981292725
